% seed = 0

mint = 33;
% maxt = 167;

nActs = 62;
dur = [0,3,3,2,1,1,2,1,2,4,3,3,2,4,2,4,1,1,2,3,7,2,3,2,5,5,2,2,4,2,2,3,2,6,1,5,5,2,2,3,2,1,1,3,2,4,4,2,2,1,3,3,2,2,3,2,4,4,4,4,5,0];

nSkills = 8;
sreq = [| 0,0,0,0,0,0,0,0,
	| 1,0,1,0,1,0,0,1,
	| 0,0,2,0,0,0,0,1,
	| 0,1,0,0,0,2,0,1,
	| 0,1,1,0,0,0,0,0,
	| 1,0,1,0,0,1,2,0,
	| 0,0,0,1,0,0,1,0,
	| 0,0,1,0,0,0,0,0,
	| 1,0,0,0,1,2,0,0,
	| 0,0,0,0,1,0,0,0,
	| 0,0,1,0,0,0,0,1,
	| 0,1,1,0,0,0,0,2,
	| 1,0,0,1,0,0,2,0,
	| 0,0,1,0,0,0,0,1,
	| 0,0,2,0,0,0,0,2,
	| 0,0,1,0,1,1,0,1,
	| 0,1,0,0,0,0,0,0,
	| 1,0,1,0,1,0,0,0,
	| 0,0,0,1,3,0,0,0,
	| 0,1,1,0,1,0,0,1,
	| 1,0,0,1,0,1,0,1,
	| 1,0,0,0,0,1,0,0,
	| 0,0,2,0,1,1,0,0,
	| 0,0,0,1,0,0,1,2,
	| 0,0,1,0,0,1,0,2,
	| 0,0,0,0,1,0,0,1,
	| 0,0,0,0,0,1,0,0,
	| 0,1,0,1,0,0,0,2,
	| 0,0,0,0,1,0,2,1,
	| 0,0,0,0,0,2,1,1,
	| 0,0,0,1,1,1,0,0,
	| 0,0,1,0,0,1,0,0,
	| 1,0,0,1,0,0,1,1,
	| 1,1,0,1,1,0,0,0,
	| 1,0,1,0,1,0,1,0,
	| 0,0,1,0,0,2,0,0,
	| 0,0,0,0,0,1,0,0,
	| 1,0,0,0,1,0,0,2,
	| 0,0,0,0,1,1,0,1,
	| 1,0,0,0,0,0,0,1,
	| 0,0,0,1,2,0,0,2,
	| 0,1,0,1,0,1,1,0,
	| 0,0,0,0,0,0,0,1,
	| 0,0,0,0,0,0,2,0,
	| 0,0,1,0,0,3,0,1,
	| 1,0,0,1,0,0,1,1,
	| 0,0,1,0,1,2,1,0,
	| 0,1,0,0,1,1,1,0,
	| 1,0,0,0,0,0,0,1,
	| 0,1,0,0,1,1,1,0,
	| 0,0,0,0,0,1,0,0,
	| 0,1,0,0,0,1,0,0,
	| 0,0,1,0,1,1,0,1,
	| 1,0,0,1,0,1,0,0,
	| 0,0,0,0,1,1,1,0,
	| 0,0,0,0,0,3,1,0,
	| 0,0,1,0,0,1,0,1,
	| 0,0,1,0,0,1,0,2,
	| 0,0,0,0,0,0,0,1,
	| 1,0,0,0,0,0,0,0,
	| 0,0,0,1,0,0,0,1,
	| 0,0,0,0,0,0,0,0, |];

% SumOfsreq = 185;

nResources = 8;
mastery = [| true,true,true,false,false,false,true,false,
	| true,false,false,false,true,true,false,true,
	| true,false,false,false,true,true,false,true,
	| false,false,true,false,false,true,true,true,
	| false,false,false,false,true,true,true,true,
	| false,true,true,true,false,true,false,false,
	| false,false,true,true,false,true,false,true,
	| false,true,false,false,true,true,false,true, |];

nPrecs = 112;
pred = [1,1,1,2,2,2,3,3,3,4,4,4,5,5,6,6,7,7,7,8,8,8,9,9,9,10,10,11,12,13,14,14,14,15,15,16,17,18,18,18,19,19,19,20,20,20,21,22,22,23,24,24,25,25,25,26,26,26,27,27,27,28,29,29,29,30,30,31,31,32,33,33,34,34,35,35,35,36,37,38,39,40,40,41,42,43,44,44,45,45,45,46,47,48,49,50,50,51,51,52,53,54,55,55,55,56,57,57,58,59,60,61];
succ = [2,3,4,50,36,58,33,6,7,34,19,5,15,24,17,31,9,16,8,11,14,47,10,13,23,25,48,12,35,18,26,27,20,45,38,18,27,28,45,47,51,36,21,21,22,30,35,39,32,29,41,29,42,43,52,34,37,40,42,43,28,44,36,37,47,41,34,49,57,48,57,37,54,55,41,50,40,53,42,44,50,43,56,57,46,61,49,52,49,51,46,58,55,55,61,52,53,60,54,56,54,59,58,59,56,61,59,60,60,62,62,62];

nUnrels = 1114;
unpred = [2,2,2,2,2,2,2,2,2,2,2,2,2,2,2,2,2,2,2,2,2,2,2,2,2,2,2,2,2,2,2,2,2,2,2,2,2,2,2,2,2,2,2,2,2,2,2,2,2,3,3,3,3,3,3,4,4,4,4,4,4,4,4,4,4,4,4,4,4,4,4,4,4,4,4,4,4,4,4,4,5,5,5,5,5,5,5,5,5,5,5,5,5,5,5,5,5,5,5,5,5,5,5,5,5,5,5,5,5,5,5,5,6,6,6,6,6,6,6,6,6,6,6,6,6,6,6,6,6,6,6,6,6,6,6,6,6,6,6,6,6,6,6,6,6,6,6,6,6,6,6,7,7,7,7,7,7,7,8,8,8,8,8,8,8,8,8,8,8,8,8,8,8,8,8,8,9,9,9,9,9,9,9,9,9,9,9,9,9,9,9,9,9,9,9,9,9,9,9,9,9,10,10,10,10,10,10,10,10,10,10,10,10,10,10,10,10,10,10,10,10,10,10,10,10,10,10,10,10,10,10,10,10,10,10,10,10,10,10,10,11,11,11,11,11,11,11,11,11,11,11,11,11,11,11,11,11,11,11,11,11,11,11,11,11,11,11,11,11,11,11,11,11,11,11,11,12,12,12,12,12,12,12,12,12,12,12,12,12,12,12,12,12,12,12,12,12,12,12,12,12,12,12,12,12,12,12,12,12,12,12,12,13,13,13,13,13,13,13,13,13,13,13,13,13,13,13,13,13,13,13,13,13,13,13,13,13,13,13,13,13,13,13,13,14,14,14,14,14,14,14,14,14,14,14,14,14,14,14,14,15,15,15,15,15,15,15,15,15,15,15,15,15,15,15,15,15,15,15,15,15,15,15,15,15,15,15,15,15,15,15,15,15,16,16,16,16,16,16,16,16,16,16,16,16,16,16,16,16,16,16,16,16,16,16,16,16,16,16,16,16,16,17,17,17,17,17,17,17,17,17,17,17,17,17,17,17,17,17,17,17,17,17,17,17,17,17,17,17,17,17,17,17,17,18,18,18,18,18,18,18,18,18,18,18,18,18,18,18,18,18,18,18,18,18,18,18,18,18,18,18,18,19,19,19,19,19,19,19,19,19,19,19,19,19,19,19,19,19,19,19,19,19,19,19,19,19,19,20,20,20,20,20,20,20,20,20,20,20,20,20,20,20,20,20,20,20,21,21,21,21,21,21,21,21,21,21,21,21,21,21,21,21,21,21,21,21,21,21,21,21,21,21,21,22,22,22,22,22,22,22,22,22,22,22,22,22,22,22,22,22,22,22,22,22,22,22,22,22,22,23,23,23,23,23,23,23,23,23,23,23,23,23,23,23,23,23,23,23,23,23,23,23,23,24,24,24,24,24,24,24,24,24,24,24,24,24,24,24,24,24,24,24,24,24,25,25,25,25,25,25,25,25,25,25,25,25,25,25,25,25,25,25,25,25,25,25,25,25,25,25,25,25,26,26,26,26,26,26,26,26,26,26,26,26,26,26,26,26,26,26,26,26,26,26,27,27,27,27,27,27,27,27,27,27,27,27,27,27,27,27,27,27,27,27,27,27,27,28,28,28,28,28,28,28,28,28,28,28,28,28,28,28,28,28,28,28,28,28,28,28,28,28,28,28,28,29,29,29,29,29,29,29,29,29,29,29,29,29,29,29,29,29,29,29,30,30,30,30,30,30,30,30,30,30,30,30,30,30,30,30,30,30,30,30,30,31,31,31,31,31,31,31,31,31,31,31,31,31,31,31,31,31,31,31,31,31,31,31,31,31,32,32,32,32,32,32,32,32,32,32,32,32,32,32,32,32,32,32,32,32,32,32,33,33,33,33,33,33,33,33,33,33,33,33,33,33,33,33,33,33,33,33,33,34,34,34,34,34,34,34,34,34,34,34,34,34,34,34,34,34,34,34,34,35,35,35,35,35,35,35,35,35,35,35,35,35,35,36,36,36,36,36,36,36,36,36,36,36,36,36,36,36,36,36,36,36,36,36,36,37,37,37,37,37,37,37,37,37,37,37,37,37,37,37,37,37,37,37,37,38,38,38,38,38,38,38,38,38,38,38,38,38,38,38,38,38,38,39,39,39,39,39,39,39,39,39,39,39,39,39,39,39,40,40,40,40,40,40,40,40,40,40,40,40,40,40,40,40,40,40,41,41,41,41,41,41,41,41,41,41,41,41,41,41,41,41,41,42,42,42,42,42,42,42,42,42,42,42,42,42,42,42,42,43,43,43,43,43,43,43,43,43,43,43,43,43,43,43,43,43,44,44,44,44,44,44,44,44,44,44,44,44,44,45,45,45,45,45,45,45,45,46,46,46,46,46,46,46,46,46,46,46,46,46,47,47,47,47,47,47,47,47,48,48,48,48,48,48,48,49,49,49,49,49,49,49,49,49,49,49,50,50,50,50,50,51,51,51,51,51,51,51,52,52,52,52,52,52,52,53,53,53,53,53,53,54,54,54,54,54,54,55,56,56,56,56,57,57,58,58,59,59,60];
unsucc = [3,4,5,6,7,8,9,10,11,12,13,14,15,16,17,18,19,20,21,22,23,24,25,26,27,28,29,30,31,32,33,34,35,37,38,39,40,41,42,43,44,45,46,47,48,49,51,55,57,4,5,15,19,24,38,6,7,8,9,10,11,12,13,14,16,17,18,20,22,23,25,26,27,28,30,31,32,33,39,48,6,7,8,9,10,11,12,13,14,16,17,18,19,20,21,22,23,25,26,27,28,30,31,32,33,34,35,39,40,43,48,50,7,8,9,10,11,12,13,14,15,16,18,19,20,21,22,23,24,25,26,29,30,32,33,34,35,36,37,38,39,40,41,45,47,48,50,51,53,54,55,15,17,19,24,31,33,38,9,10,13,15,16,17,18,19,23,24,25,29,31,33,36,38,45,51,11,12,14,15,16,17,19,20,21,22,24,26,27,30,31,32,33,34,35,38,39,40,41,50,57,11,12,13,14,15,16,17,18,19,20,21,22,23,24,26,27,28,29,30,31,32,33,34,35,36,37,38,39,40,41,44,45,47,49,50,51,53,54,57,13,14,15,16,17,18,19,20,21,22,23,24,25,26,27,28,29,30,31,32,33,34,36,37,38,39,42,44,45,46,47,48,49,51,55,58,13,14,15,16,17,18,19,20,21,22,23,24,25,26,27,28,29,30,31,32,33,34,36,37,38,39,42,44,45,46,47,48,49,51,55,58,14,15,16,17,19,20,21,22,23,24,25,26,27,29,30,31,32,33,34,35,36,37,38,39,40,41,42,43,48,50,53,57,15,16,17,18,19,23,24,25,29,31,33,36,38,45,47,51,16,17,18,19,20,21,22,23,24,25,26,27,28,29,30,31,32,33,34,35,36,37,39,40,41,42,43,47,48,50,53,55,57,17,19,20,21,22,23,24,25,26,27,29,30,31,32,33,34,35,36,37,38,39,40,41,42,43,48,50,53,57,18,19,20,21,22,23,24,25,26,29,30,31,32,33,34,35,36,37,38,39,40,41,45,47,48,50,51,53,54,55,57,59,19,20,21,22,23,24,25,26,27,29,30,31,32,33,34,35,36,37,38,39,40,41,42,43,48,50,53,57,20,22,23,24,25,26,27,28,29,30,31,32,33,34,37,38,39,42,44,45,46,47,48,49,55,58,23,24,25,26,27,28,29,31,33,36,37,38,42,44,45,46,47,49,51,22,23,24,25,26,27,28,29,30,31,32,33,34,36,37,38,39,42,44,45,46,47,48,49,51,55,58,23,24,25,26,27,28,29,30,31,33,34,35,36,37,38,40,41,42,43,44,45,46,47,49,51,57,24,25,26,27,28,30,31,32,33,34,35,38,39,40,41,43,44,45,48,49,50,51,52,57,25,26,27,28,30,31,32,33,34,35,38,39,40,43,44,45,48,49,50,51,52,26,27,28,29,30,31,32,33,34,35,36,37,38,39,40,41,44,45,47,48,49,50,51,53,54,55,57,59,27,28,29,30,31,32,33,35,36,38,39,41,44,45,47,48,49,50,51,52,53,57,29,30,31,32,33,34,35,36,37,38,39,40,41,45,47,48,50,51,53,54,55,57,59,29,30,31,32,33,34,35,36,37,38,39,40,41,42,43,45,46,47,48,50,51,53,54,55,57,58,59,60,30,31,32,33,34,35,38,39,40,41,43,44,45,48,49,50,51,52,57,31,32,33,35,36,37,38,39,40,42,43,44,45,46,47,48,49,50,51,52,53,32,33,34,35,36,37,38,39,40,41,42,43,44,45,46,47,48,50,51,52,53,54,55,56,58,33,34,35,36,37,38,39,40,41,42,43,44,45,46,47,49,50,51,52,53,54,57,34,35,36,38,39,40,41,43,44,45,47,48,49,50,51,52,53,54,55,56,61,35,36,37,38,39,40,41,42,43,44,45,46,47,48,49,50,51,52,53,57,36,37,38,39,42,44,45,46,47,48,49,51,55,58,37,38,39,40,41,42,43,44,45,46,47,48,49,50,51,52,55,56,57,58,60,61,38,39,40,41,43,44,45,47,48,49,50,51,52,53,54,55,56,57,59,61,39,40,41,42,43,45,46,47,48,50,51,53,54,55,57,58,59,60,40,41,42,43,44,45,46,47,48,49,51,55,57,58,60,41,42,44,45,46,47,48,49,50,51,52,53,54,55,57,58,59,60,42,43,44,45,46,47,48,49,50,51,52,53,54,55,56,58,61,43,44,45,47,48,49,50,51,52,53,54,55,56,57,59,61,44,45,46,47,48,49,50,51,52,53,54,55,56,57,58,59,60,45,46,47,48,50,51,53,54,55,57,58,59,60,47,48,50,52,53,55,56,57,47,48,49,50,51,52,53,54,55,56,57,59,61,48,49,50,51,52,53,54,57,49,50,51,52,53,54,57,50,51,52,53,54,55,56,57,58,59,60,51,55,57,58,60,52,53,55,56,57,58,61,53,54,55,57,58,59,60,55,56,57,58,60,61,55,56,57,58,60,61,57,57,58,59,60,58,61,59,61,60,61,61];

USEFUL_RES = [{},
	{1,2,3,4,5,6,7,8},
	{1,2,3,4,5,6,7,8},
	{1,2,3,4,5,6,7,8},
	{1,4,6,7,8},
	{1,2,3,4,5,6,7,8},
	{1,4,5,6,7},
	{1,4,6,7},
	{1,2,3,4,5,6,7,8},
	{2,3,5,8},
	{1,2,3,4,5,6,7,8},
	{1,2,3,4,5,6,7,8},
	{1,2,3,4,5,6,7},
	{1,2,3,4,5,6,7,8},
	{1,2,3,4,5,6,7,8},
	{1,2,3,4,5,6,7,8},
	{1,6,8},
	{1,2,3,4,5,6,7,8},
	{2,3,5,6,7,8},
	{1,2,3,4,5,6,7,8},
	{1,2,3,4,5,6,7,8},
	{1,2,3,4,5,6,7,8},
	{1,2,3,4,5,6,7,8},
	{1,2,3,4,5,6,7,8},
	{1,2,3,4,5,6,7,8},
	{2,3,4,5,7,8},
	{2,3,4,5,6,7,8},
	{1,2,3,4,5,6,7,8},
	{1,2,3,4,5,7,8},
	{1,2,3,4,5,6,7,8},
	{2,3,4,5,6,7,8},
	{1,2,3,4,5,6,7,8},
	{1,2,3,4,5,6,7,8},
	{1,2,3,5,6,7,8},
	{1,2,3,4,5,6,7,8},
	{1,2,3,4,5,6,7,8},
	{2,3,4,5,6,7,8},
	{1,2,3,4,5,7,8},
	{2,3,4,5,6,7,8},
	{1,2,3,4,5,7,8},
	{2,3,4,5,6,7,8},
	{1,2,3,4,5,6,7,8},
	{2,3,4,5,7,8},
	{1,4,5},
	{1,2,3,4,5,6,7,8},
	{1,2,3,4,5,6,7,8},
	{1,2,3,4,5,6,7,8},
	{1,2,3,4,5,6,7,8},
	{1,2,3,4,5,7,8},
	{1,2,3,4,5,6,7,8},
	{2,3,4,5,6,7,8},
	{1,2,3,4,5,6,7,8},
	{1,2,3,4,5,6,7,8},
	{1,2,3,4,5,6,7,8},
	{1,2,3,4,5,6,7,8},
	{1,2,3,4,5,6,7,8},
	{1,2,3,4,5,6,7,8},
	{1,2,3,4,5,6,7,8},
	{2,3,4,5,7,8},
	{1,2,3},
	{2,3,4,5,6,7,8},
	{}];

POTENTIAL_ACT = [{2,3,4,5,6,7,8,9,11,12,13,14,15,16,17,18,20,21,22,23,24,25,28,29,30,32,33,34,35,36,38,40,42,44,45,46,47,48,49,50,52,53,54,55,56,57,58,60},
	{2,3,4,6,9,10,11,12,13,14,15,16,18,19,20,21,22,23,24,25,26,27,28,29,30,31,32,33,34,35,36,37,38,39,40,41,42,43,45,46,47,48,49,50,51,52,53,54,55,56,57,58,59,60,61},
	{2,3,4,6,9,10,11,12,13,14,15,16,18,19,20,21,22,23,24,25,26,27,28,29,30,31,32,33,34,35,36,37,38,39,40,41,42,43,45,46,47,48,49,50,51,52,53,54,55,56,57,58,59,60,61},
	{2,3,4,5,6,7,8,9,11,12,13,14,15,16,18,20,21,22,23,24,25,26,27,28,29,30,31,32,33,35,36,37,38,39,40,41,42,43,44,45,46,47,48,49,50,51,52,53,54,55,56,57,58,59,61},
	{2,3,4,6,7,9,10,11,12,13,14,15,16,18,19,20,21,22,23,24,25,26,27,28,29,30,31,32,33,34,35,36,37,38,39,40,41,42,43,44,45,46,47,48,49,50,51,52,53,54,55,56,57,58,59,61},
	{2,3,4,5,6,7,8,9,11,12,13,14,15,16,17,18,19,20,21,22,23,24,25,27,28,30,31,32,33,34,35,36,37,39,41,42,45,46,47,48,50,51,52,53,54,55,56,57,58,61},
	{2,3,4,5,6,7,8,9,11,12,13,14,15,16,18,19,20,21,22,23,24,25,26,27,28,29,30,31,32,33,34,35,36,37,38,39,40,41,42,43,45,46,47,48,49,50,51,52,53,54,55,56,57,58,59,61},
	{2,3,4,5,6,9,10,11,12,14,15,16,17,18,19,20,21,22,23,24,25,26,27,28,29,30,31,32,33,34,35,36,37,38,39,40,41,42,43,45,46,47,48,49,50,51,52,53,54,55,56,57,58,59,61}];
